File : Instances/p25
Used 78s
11714

1 0 0 0 0 1 0 0 0 0 0 1 0 0 1 0 0 1 0 0 1 0 0 0 1 0 0 0 0 0 
20 11 20 14 20 5 0 24 14 17 24 20 20 20 0 14 14 17 5 11 0 0 5 0 5 20 17 24 5 24 5 11 20 11 20 20 24 24 11 14 0 14 24 11 24 14 11 20 11 14 5 0 14 5 20 20 17 11 11 14 0 5 20 11 11 11 24 0 24 24 20 20 11 0 24 20 24 20 14 24 20 0 20 17 0 17 0 0 20 5 0 24 0 11 0 24 14 11 11 20 20 0 17 11 0 5 0 11 14 14 14 14 17 11 11 11 24 24 24 24 5 14 11 20 20 11 5 24 11 5 0 11 24 5 14 14 11 5 20 17 0 20 20 14 14 11 11 5 17 5 
